units metal
dimension 3
boundary p p s
atom_style atomic

lattice fcc 4.08
variable cubel equal 4
variable fixer1 equal "v_cubel+2"
variable fixer2 equal "v_cubel+1.49"

region box block -${cubel} ${cubel} -${cubel} ${cubel} -${fixer1} 1 units lattice
region cbox block -${cubel} ${cubel} -${cubel} ${cubel} -${fixer1} 0 units lattice
create_box 1 box
create_atoms 1 region cbox
create_atoms 1 single -0.5 0 0.5 units lattice

# Define regions and groups
region hold block INF INF INF INF -${fixer1} -${fixer2} units lattice
region temp block INF INF INF INF -${fixer2} -${cubel} units lattice
group hold region hold
group temp region temp

# Define adatom group by position
region adatom block -1 -0.1 -0.1 0.1 0.4 0.6 units lattice
group adatom region adatom

pair_style eam
pair_coeff * * Au_u3.eam

timestep        0.005
compute         new all temp
velocity        temp create 300 12345
fix heater temp temp/rescale 1 850 850 5 1
fix nve all nve
fix freeze hold setforce 0 0 0

# MSD tracking
compute msd_adatom adatom msd
fix msdout all ave/time 10 100 1000 c_msd_adatom[4] file msd_adatom.txt

# Energy logging
variable e     equal pe
variable k     equal ke
variable t     equal etotal
variable T     equal temp
fix energy all ave/time 1 50 50 v_k v_e v_t v_T file energy_avg.txt

minimize 1.0e-4 1.0e-6 1000 10000

# Dump every 1000 steps
dump eve all custom 1000 dump.Au.lammpstrj id type xu yu zu
dump_modify eve sort id

thermo 50
run 50000
