units           metal
atom_style      atomic
boundary        p p p

read_data       structure.data  # <-- Your starting configuration

mass 1          1.00794  # H
mass 2          106.42   # Pd

pair_style      eam/alloy
pair_coeff      * * PdH_Zhou_June29_2007_2.eam.alloy H Pd

# Energy minimization settings
thermo          10
thermo_style    custom step pe etotal press vol

min_style       cg
min_modify      line quadratic

minimize        1e-10 1e-12 10000 100000

# write relaxed structure
write_data      PdH_50_50_relaxed.data
